15	3	2
1699	1699	1699	
729	592	594	
869	363	380	
694	160	173	
364	374	385	
632	67	71	
641	957	987	
89	330	352	
635	708	728	
58	769	782	
308	566	590	
219	482	525	
445	606	622	
193	573	585	
58	246	269	
228	4	4	
